(set-logic HORN)
(set-info :source |
    Benchmark: C_VC
    Output by Princess (http://www.philipp.ruemmer.org/princess.shtml)
|)
(set-info :status sat)
(declare-heap Heap Addr HeapObject
 defObj
 ((HeapObject 0)) (
  (
   (O_Int (getInt Int))
   (O_UInt (getUInt Int))
   (O_Addr (getAddr Addr))
   (defObj)
  )
))
(declare-fun inv_main11 (Heap Int AddrRange Int Int) Bool)
(declare-fun inv_main16 (Heap Int AddrRange Int Int) Bool)
(declare-fun inv_main17 (Heap Int AddrRange Int Int) Bool)
(declare-fun inv_main25 (Heap Int AddrRange Int Int AddrRange Int) Bool)
(declare-fun inv_main28 (Heap Int AddrRange Int Int AddrRange Int) Bool)
(declare-fun inv_main30 (Heap Int AddrRange Int Int AddrRange Int) Bool)
(declare-fun inv_main33 (Heap Int AddrRange Int Int AddrRange Int Int) Bool)
(declare-fun inv_main38 (Heap Int AddrRange Int Int AddrRange Int AddrRange Int Int Int) Bool)
(declare-fun inv_main43 (Heap Int AddrRange Int Int AddrRange Int AddrRange Int Int) Bool)
(declare-fun inv_main48 (Heap Int AddrRange Int Int AddrRange Int) Bool)
(declare-fun inv_main52 (Heap Int AddrRange Int Int AddrRange Int) Bool)
(declare-fun inv_main6 (Heap Int AddrRange Int Int) Bool)
(assert (forall ((var0 Int) (var1 Int) (var2 AddrRange) (var3 Int) (var4 Int) (var5 Heap) (var6 Heap)) (or (not (and (= var6 emptyHeap) (and (and (= var5 (newBatchHeap (batchAlloc emptyHeap (O_Int var4) 100000))) (= var3 0)) (= var2 (newAddrRange (batchAlloc emptyHeap (O_Int var4) 100000)))))) (inv_main6 var5 var3 var2 var1 var0))))
(assert (forall ((var0 Int) (var1 Int) (var2 Int) (var3 AddrRange) (var4 Int) (var5 Heap)) (or (not (and (inv_main17 var5 var4 var3 var2 var1) (and (and (is-O_Int (read var5 (nthAddrRange var3 var2))) (is-O_Int (read var5 (nthAddrRange var3 var1)))) (= var0 (+ var1 1))))) (inv_main16 var5 var4 var3 var2 var0))))
(assert (forall ((var0 Int) (var1 Int) (var2 Int) (var3 Int) (var4 AddrRange) (var5 Int) (var6 Heap)) (or (not (and (inv_main16 var6 var5 var4 var3 var2) (and (and (and (<= 0 (+ (+ var5 (* (- 1) (+ var3 1))) (- 1))) (not (<= 0 (+ (+ var5 (* (- 1) var2)) (- 1))))) (= var1 (+ var3 1))) (= var0 (+ (+ var3 1) 1))))) (inv_main16 var6 var5 var4 var1 var0))))
(assert (forall ((var0 Int) (var1 Int) (var2 Int) (var3 AddrRange) (var4 Int) (var5 Heap) (var6 Int) (var7 Int) (var8 Int) (var9 Int) (var10 AddrRange) (var11 Int) (var12 Heap)) (or (not (and (inv_main11 var12 var11 var10 var9 var8) (and (and (and (<= 0 (+ var7 (- 1))) (and (not (<= 0 (+ (+ 100000 (* (- 1) (+ var6 1))) (- 1)))) (and (and (is-O_Int (read var12 (nthAddrRange var10 var9))) (is-O_Int (read var12 (nthAddrRange var10 var9)))) (and (and (and (and (= var5 (write var12 (nthAddrRange var10 var9) (O_Int var4))) (= var7 var11)) (= var3 var10)) (= var6 var9)) (= var2 var8))))) (= var1 0)) (= var0 1)))) (inv_main16 var5 var7 var3 var1 var0))))
(assert (forall ((var0 Int) (var1 AddrRange) (var2 Int) (var3 Int) (var4 AddrRange) (var5 Int) (var6 Int) (var7 Heap) (var8 Int) (var9 Int) (var10 AddrRange) (var11 Int) (var12 Int) (var13 AddrRange) (var14 Int) (var15 Heap)) (or (not (and (inv_main25 var15 var14 var13 var12 var11 var10 var9) (and (and (<= 0 (+ (+ 100000 (* (- 1) (+ var8 1))) (- 1))) (and (and (is-O_Int (read var15 (nthAddrRange var10 var9))) (is-O_Int (read var15 (nthAddrRange var10 var9)))) (and (and (and (and (and (and (= var7 (write var15 (nthAddrRange var10 var9) (O_Int var6))) (= var5 var14)) (= var4 var13)) (= var3 var12)) (= var2 var11)) (= var1 var10)) (= var8 var9)))) (= var0 (+ var8 1))))) (inv_main25 var7 var5 var4 var3 var2 var1 var0))))
(assert (forall ((var0 Int) (var1 AddrRange) (var2 Int) (var3 Int) (var4 AddrRange) (var5 Int) (var6 Int) (var7 Heap) (var8 Int) (var9 Int) (var10 AddrRange) (var11 Int) (var12 Heap)) (or (not (and (inv_main16 var12 var11 var10 var9 var8) (and (and (and (and (and (and (and (and (= var7 (newBatchHeap (batchAlloc emptyHeap (O_Int var6) 100000))) (= var5 var11)) (= var4 var10)) (= var3 (+ var9 1))) (= var2 var8)) (= var1 (newAddrRange (batchAlloc emptyHeap (O_Int var6) 100000)))) (not (<= 0 (+ (+ var11 (* (- 1) (+ var9 1))) (- 1))))) (not (<= 0 (+ (+ var11 (* (- 1) var8)) (- 1))))) (= var0 0)))) (inv_main25 var7 var5 var4 var3 var2 var1 var0))))
(assert (forall ((var0 Int) (var1 Int) (var2 Heap) (var3 Int) (var4 AddrRange) (var5 Int) (var6 Int) (var7 Int) (var8 AddrRange) (var9 AddrRange) (var10 Int) (var11 Int) (var12 Int) (var13 Heap) (var14 Int) (var15 Int) (var16 AddrRange) (var17 Int) (var18 Heap)) (or (not (and (inv_main11 var18 var17 var16 var15 var14) (and (and (and (and (and (and (and (and (= var13 (newBatchHeap (batchAlloc emptyHeap (O_Int var12) 100000))) (= var11 var10)) (= var9 var8)) (= var7 0)) (= var6 var5)) (= var4 (newAddrRange (batchAlloc emptyHeap (O_Int var12) 100000)))) (not (<= 0 (+ var10 (- 1))))) (and (not (<= 0 (+ (+ 100000 (* (- 1) (+ var3 1))) (- 1)))) (and (and (is-O_Int (read var18 (nthAddrRange var16 var15))) (is-O_Int (read var18 (nthAddrRange var16 var15)))) (and (and (and (and (= var2 (write var18 (nthAddrRange var16 var15) (O_Int var1))) (= var10 var17)) (= var8 var16)) (= var3 var15)) (= var5 var14))))) (= var0 0)))) (inv_main25 var13 var11 var9 var7 var6 var4 var0))))
(assert (forall ((var0 Int) (var1 Int) (var2 AddrRange) (var3 Int) (var4 Int) (var5 AddrRange) (var6 Int) (var7 Heap)) (or (not (and (inv_main33 var7 var6 var5 var4 var3 var2 var1 var0) (= var0 0))) (inv_main30 var7 var6 var5 var4 var3 var2 var1))))
(assert (forall ((var0 Int) (var1 Int) (var2 AddrRange) (var3 Int) (var4 Heap)) (or (not (and (inv_main16 var4 var3 var2 var1 var0) (<= 0 (+ (+ var3 (* (- 1) var0)) (- 1))))) (inv_main17 var4 var3 var2 var1 var0))))
(assert (forall ((var0 Int) (var1 AddrRange) (var2 Int) (var3 Int) (var4 AddrRange) (var5 Int) (var6 Int) (var7 Heap) (var8 Int) (var9 Int) (var10 AddrRange) (var11 Int) (var12 Int) (var13 AddrRange) (var14 Int) (var15 Heap)) (or (not (and (inv_main25 var15 var14 var13 var12 var11 var10 var9) (and (and (not (<= 0 (+ (+ 100000 (* (- 1) (+ var8 1))) (- 1)))) (and (and (is-O_Int (read var15 (nthAddrRange var10 var9))) (is-O_Int (read var15 (nthAddrRange var10 var9)))) (and (and (and (and (and (and (= var7 (write var15 (nthAddrRange var10 var9) (O_Int var6))) (= var5 var14)) (= var4 var13)) (= var3 var12)) (= var2 var11)) (= var1 var10)) (= var8 var9)))) (= var0 0)))) (inv_main28 var7 var5 var4 var3 var2 var1 var0))))
(assert (forall ((var0 Int) (var1 Int) (var2 Int) (var3 Int) (var4 AddrRange) (var5 AddrRange) (var6 Int) (var7 Int) (var8 AddrRange) (var9 Int) (var10 Heap) (var11 Int) (var12 Int) (var13 Int) (var14 AddrRange) (var15 Int) (var16 AddrRange) (var17 Int) (var18 Int) (var19 AddrRange) (var20 Int) (var21 Heap)) (or (not (and (inv_main43 var21 var20 var19 var18 var17 var16 var15 var14 var13 var12) (and (and (and (<= 0 (+ (+ 100000 (* (- 1) (+ var11 1))) (- 1))) (and (and (is-O_Int (read var21 (nthAddrRange var14 var13))) (is-O_Int (read var21 (nthAddrRange var14 var13)))) (and (and (and (and (and (and (and (and (and (= var10 (write var21 (nthAddrRange var14 var13) (O_Int var12))) (= var9 var20)) (= var8 var19)) (= var7 var18)) (= var6 var17)) (= var5 var16)) (= var11 var15)) (= var4 var14)) (= var3 var13)) (= var2 var12)))) (= var1 (+ var3 1))) (= var0 (+ var11 1))))) (inv_main28 var10 var1 var8 var7 var6 var5 var0))))
(assert (forall ((var0 Int) (var1 Int) (var2 Int) (var3 AddrRange) (var4 Int) (var5 Int) (var6 AddrRange) (var7 Int) (var8 Heap)) (or (not (and (inv_main33 var8 var7 var6 var5 var4 var3 var2 var1) (and (and (<= 0 (+ (+ 100000 (* (- 1) (+ var2 1))) (- 1))) (not (= var1 0))) (= var0 (+ var2 1))))) (inv_main28 var8 var7 var6 var5 var4 var3 var0))))
(assert (forall ((var0 Int) (var1 AddrRange) (var2 Int) (var3 AddrRange) (var4 Int) (var5 Int) (var6 AddrRange) (var7 Int) (var8 Heap) (var9 Int) (var10 Int) (var11 Int) (var12 Int) (var13 Int) (var14 Int) (var15 Int) (var16 AddrRange) (var17 Int) (var18 AddrRange) (var19 Int) (var20 Int) (var21 AddrRange) (var22 Int) (var23 Heap)) (or (not (and (inv_main38 var23 var22 var21 var20 var19 var18 var17 var16 var15 var14 var13) (and (and (<= 0 (+ (+ var12 (* (- 1) (+ var11 1))) (- 1))) (and (and (not (= var10 var9)) (is-O_Int (read var23 (nthAddrRange var16 var13)))) (and (and (and (and (and (and (and (and (and (and (and (= var8 var23) (= var7 var22)) (= var6 var21)) (= var5 var20)) (= var4 var19)) (= var3 var18)) (= var2 var17)) (= var1 var16)) (= var12 var15)) (= var9 var14)) (= var11 var13)) (= var10 (getInt (read var23 (nthAddrRange var16 var13))))))) (= var0 (+ var11 1))))) (inv_main38 var8 var7 var6 var5 var4 var3 var2 var1 var12 var9 var0))))
(assert (forall ((var0 Int) (var1 Int) (var2 AddrRange) (var3 Int) (var4 AddrRange) (var5 Int) (var6 Int) (var7 AddrRange) (var8 Int) (var9 Heap) (var10 Int) (var11 Int) (var12 AddrRange) (var13 Int) (var14 Int) (var15 AddrRange) (var16 Int) (var17 Heap)) (or (not (and (inv_main28 var17 var16 var15 var14 var13 var12 var11) (and (and (and (<= 0 (+ var10 (- 1))) (is-O_Int (read var17 (nthAddrRange var12 var11)))) (and (and (and (and (and (and (and (and (and (= var9 var17) (= var8 var16)) (= var7 var15)) (= var6 var14)) (= var5 var13)) (= var4 var12)) (= var3 var11)) (= var2 var15)) (= var10 var16)) (= var1 (getInt (read var17 (nthAddrRange var12 var11)))))) (= var0 0)))) (inv_main38 var9 var8 var7 var6 var5 var4 var3 var2 var10 var1 var0))))
(assert (forall ((var0 Int) (var1 Int) (var2 Int) (var3 Int) (var4 Int) (var5 AddrRange) (var6 AddrRange) (var7 Int) (var8 Int) (var9 AddrRange) (var10 Int) (var11 Heap) (var12 Int) (var13 Int) (var14 Int) (var15 AddrRange) (var16 Int) (var17 AddrRange) (var18 Int) (var19 Int) (var20 AddrRange) (var21 Int) (var22 Heap)) (or (not (and (inv_main43 var22 var21 var20 var19 var18 var17 var16 var15 var14 var13) (and (and (and (and (not (<= 0 (+ (+ 100000 (* (- 1) (+ var12 1))) (- 1)))) (and (and (is-O_Int (read var22 (nthAddrRange var15 var14))) (is-O_Int (read var22 (nthAddrRange var15 var14)))) (and (and (and (and (and (and (and (and (and (= var11 (write var22 (nthAddrRange var15 var14) (O_Int var13))) (= var10 var21)) (= var9 var20)) (= var8 var19)) (= var7 var18)) (= var6 var17)) (= var12 var16)) (= var5 var15)) (= var4 var14)) (= var3 var13)))) (= var2 (+ var4 1))) (= var1 0)) (= var0 (+ var12 1))))) (inv_main48 var11 var2 var9 var1 var7 var6 var0))))
(assert (forall ((var0 Int) (var1 Int) (var2 Int) (var3 Int) (var4 AddrRange) (var5 Int) (var6 Int) (var7 AddrRange) (var8 Int) (var9 Heap)) (or (not (and (inv_main33 var9 var8 var7 var6 var5 var4 var3 var2) (and (and (and (not (<= 0 (+ (+ 100000 (* (- 1) (+ var3 1))) (- 1)))) (not (= var2 0))) (= var1 0)) (= var0 (+ var3 1))))) (inv_main48 var9 var8 var7 var1 var5 var4 var0))))
(assert (forall ((var0 Int) (var1 Int) (var2 Int) (var3 AddrRange) (var4 Int) (var5 Int) (var6 AddrRange) (var7 Int) (var8 Heap)) (or (not (and (inv_main48 var8 var7 var6 var5 var4 var3 var2) (and (and (and (not (<= 0 (+ (+ var7 (* (- 1) (+ var5 1))) (- 1)))) (<= 0 (+ (+ var7 (* (- 1) var5)) (- 1)))) (= var1 (+ var5 1))) (= var0 (+ var5 1))))) (inv_main48 var8 var7 var6 var1 var0 var3 var2))))
(assert (forall ((var0 Int) (var1 Int) (var2 Int) (var3 AddrRange) (var4 Int) (var5 Int) (var6 AddrRange) (var7 Int) (var8 Heap)) (or (not (and (inv_main52 var8 var7 var6 var5 var4 var3 var2) (and (and (and (not (<= 0 (+ (+ var7 (* (- 1) (+ var4 1))) (- 1)))) (and (is-O_Int (read var8 (nthAddrRange var6 var5))) (is-O_Int (read var8 (nthAddrRange var6 var4))))) (= var1 (+ var5 1))) (= var0 (+ var4 1))))) (inv_main48 var8 var7 var6 var1 var0 var3 var2))))
(assert (forall ((var0 Int) (var1 Int) (var2 Int) (var3 AddrRange) (var4 Int) (var5 Heap)) (or (not (and (inv_main6 var5 var4 var3 var2 var1) (= var0 0))) (inv_main11 var5 var4 var3 var0 var1))))
(assert (forall ((var0 Int) (var1 Int) (var2 AddrRange) (var3 Int) (var4 Int) (var5 Heap) (var6 Int) (var7 Int) (var8 Int) (var9 AddrRange) (var10 Int) (var11 Heap)) (or (not (and (inv_main11 var11 var10 var9 var8 var7) (and (and (<= 0 (+ (+ 100000 (* (- 1) (+ var6 1))) (- 1))) (and (and (is-O_Int (read var11 (nthAddrRange var9 var8))) (is-O_Int (read var11 (nthAddrRange var9 var8)))) (and (and (and (and (= var5 (write var11 (nthAddrRange var9 var8) (O_Int var4))) (= var3 var10)) (= var2 var9)) (= var6 var8)) (= var1 var7)))) (= var0 (+ var6 1))))) (inv_main11 var5 var3 var2 var0 var1))))
(assert (forall ((var0 Int) (var1 Int) (var2 AddrRange) (var3 Int) (var4 Int) (var5 AddrRange) (var6 Int) (var7 Heap)) (or (not (and (inv_main30 var7 var6 var5 var4 var3 var2 var1) (and (is-O_Int (read var7 (nthAddrRange var2 var1))) (= var0 (getInt (read var7 (nthAddrRange var2 var1))))))) (inv_main43 var7 var6 var5 var4 var3 var2 var1 var5 var6 var0))))
(assert (forall ((var0 Int) (var1 Int) (var2 Int) (var3 AddrRange) (var4 Int) (var5 AddrRange) (var6 Int) (var7 Int) (var8 AddrRange) (var9 Int) (var10 Heap) (var11 Int) (var12 Int) (var13 Int) (var14 Int) (var15 Int) (var16 AddrRange) (var17 Int) (var18 AddrRange) (var19 Int) (var20 Int) (var21 AddrRange) (var22 Int) (var23 Heap)) (or (not (and (inv_main38 var23 var22 var21 var20 var19 var18 var17 var16 var15 var14 var13) (and (and (and (= var12 var11) (is-O_Int (read var23 (nthAddrRange var16 var13)))) (and (and (and (and (and (and (and (and (and (and (and (= var10 var23) (= var9 var22)) (= var8 var21)) (= var7 var20)) (= var6 var19)) (= var5 var18)) (= var4 var17)) (= var3 var16)) (= var2 var15)) (= var11 var14)) (= var1 var13)) (= var12 (getInt (read var23 (nthAddrRange var16 var13)))))) (= var0 1)))) (inv_main33 var10 var9 var8 var7 var6 var5 var4 var0))))
(assert (forall ((var0 Int) (var1 AddrRange) (var2 Int) (var3 AddrRange) (var4 Int) (var5 Int) (var6 AddrRange) (var7 Int) (var8 Heap) (var9 Int) (var10 Int) (var11 Int) (var12 Int) (var13 Int) (var14 Int) (var15 Int) (var16 AddrRange) (var17 Int) (var18 AddrRange) (var19 Int) (var20 Int) (var21 AddrRange) (var22 Int) (var23 Heap)) (or (not (and (inv_main38 var23 var22 var21 var20 var19 var18 var17 var16 var15 var14 var13) (and (and (not (<= 0 (+ (+ var12 (* (- 1) (+ var11 1))) (- 1)))) (and (and (not (= var10 var9)) (is-O_Int (read var23 (nthAddrRange var16 var13)))) (and (and (and (and (and (and (and (and (and (and (and (= var8 var23) (= var7 var22)) (= var6 var21)) (= var5 var20)) (= var4 var19)) (= var3 var18)) (= var2 var17)) (= var1 var16)) (= var12 var15)) (= var9 var14)) (= var11 var13)) (= var10 (getInt (read var23 (nthAddrRange var16 var13))))))) (= var0 0)))) (inv_main33 var8 var7 var6 var5 var4 var3 var2 var0))))
(assert (forall ((var0 Int) (var1 Int) (var2 AddrRange) (var3 Int) (var4 AddrRange) (var5 Int) (var6 Int) (var7 AddrRange) (var8 Int) (var9 Heap) (var10 Int) (var11 Int) (var12 AddrRange) (var13 Int) (var14 Int) (var15 AddrRange) (var16 Int) (var17 Heap)) (or (not (and (inv_main28 var17 var16 var15 var14 var13 var12 var11) (and (and (and (not (<= 0 (+ var10 (- 1)))) (is-O_Int (read var17 (nthAddrRange var12 var11)))) (and (and (and (and (and (and (and (and (and (= var9 var17) (= var8 var16)) (= var7 var15)) (= var6 var14)) (= var5 var13)) (= var4 var12)) (= var3 var11)) (= var2 var15)) (= var10 var16)) (= var1 (getInt (read var17 (nthAddrRange var12 var11)))))) (= var0 0)))) (inv_main33 var9 var8 var7 var6 var5 var4 var3 var0))))
(assert (forall ((var0 Int) (var1 Int) (var2 AddrRange) (var3 Int) (var4 Int) (var5 AddrRange) (var6 Int) (var7 Heap)) (or (not (and (inv_main48 var7 var6 var5 var4 var3 var2 var1) (and (and (<= 0 (+ (+ var6 (* (- 1) (+ var4 1))) (- 1))) (<= 0 (+ (+ var6 (* (- 1) var4)) (- 1)))) (= var0 (+ var4 1))))) (inv_main52 var7 var6 var5 var4 var0 var2 var1))))
(assert (forall ((var0 Int) (var1 Int) (var2 AddrRange) (var3 Int) (var4 Int) (var5 AddrRange) (var6 Int) (var7 Heap)) (or (not (and (inv_main52 var7 var6 var5 var4 var3 var2 var1) (and (and (<= 0 (+ (+ var6 (* (- 1) (+ var3 1))) (- 1))) (and (is-O_Int (read var7 (nthAddrRange var5 var4))) (is-O_Int (read var7 (nthAddrRange var5 var3))))) (= var0 (+ var3 1))))) (inv_main52 var7 var6 var5 var4 var0 var2 var1))))
(assert (forall ((var0 Int) (var1 Int) (var2 AddrRange) (var3 Int) (var4 Heap)) (not (and (inv_main11 var4 var3 var2 var1 var0) (not (is-O_Int (read var4 (nthAddrRange var2 var1))))))))
(assert (forall ((var0 Int) (var1 Int) (var2 AddrRange) (var3 Int) (var4 Heap)) (not (and (inv_main11 var4 var3 var2 var1 var0) (and (is-O_Int (read var4 (nthAddrRange var2 var1))) (not (within var2 (nthAddrRange var2 var1))))))))
(assert (forall ((var0 Int) (var1 Int) (var2 AddrRange) (var3 Int) (var4 Heap)) (not (and (inv_main11 var4 var3 var2 var1 var0) (and (is-O_Int (read var4 (nthAddrRange var2 var1))) (not (is-O_Int (read var4 (nthAddrRange var2 var1)))))))))
(assert (forall ((var0 Int) (var1 Int) (var2 AddrRange) (var3 Int) (var4 Heap)) (not (and (inv_main17 var4 var3 var2 var1 var0) (not (is-O_Int (read var4 (nthAddrRange var2 var1))))))))
(assert (forall ((var0 Int) (var1 Int) (var2 AddrRange) (var3 Int) (var4 Heap)) (not (and (inv_main17 var4 var3 var2 var1 var0) (not (within var2 (nthAddrRange var2 var1)))))))
(assert (forall ((var0 Int) (var1 Int) (var2 AddrRange) (var3 Int) (var4 Heap)) (not (and (inv_main17 var4 var3 var2 var1 var0) (not (is-O_Int (read var4 (nthAddrRange var2 var0))))))))
(assert (forall ((var0 Int) (var1 Int) (var2 AddrRange) (var3 Int) (var4 Heap)) (not (and (inv_main17 var4 var3 var2 var1 var0) (not (within var2 (nthAddrRange var2 var0)))))))
(assert (forall ((var0 Int) (var1 Int) (var2 AddrRange) (var3 Int) (var4 Heap)) (not (and (inv_main17 var4 var3 var2 var1 var0) (not (is-O_Int (read var4 (nthAddrRange var2 var1))))))))
(assert (forall ((var0 Int) (var1 Int) (var2 AddrRange) (var3 Int) (var4 Heap)) (not (and (inv_main17 var4 var3 var2 var1 var0) (and (is-O_Int (read var4 (nthAddrRange var2 var1))) (not (within var2 (nthAddrRange var2 var1))))))))
(assert (forall ((var0 Int) (var1 Int) (var2 AddrRange) (var3 Int) (var4 Heap)) (not (and (inv_main17 var4 var3 var2 var1 var0) (and (is-O_Int (read var4 (nthAddrRange var2 var1))) (not (is-O_Int (read var4 (nthAddrRange var2 var0)))))))))
(assert (forall ((var0 Int) (var1 Int) (var2 AddrRange) (var3 Int) (var4 Heap)) (not (and (inv_main17 var4 var3 var2 var1 var0) (and (and (is-O_Int (read var4 (nthAddrRange var2 var1))) (is-O_Int (read var4 (nthAddrRange var2 var0)))) (not (within var2 (nthAddrRange var2 var0))))))))
(assert (forall ((var0 Int) (var1 Int) (var2 AddrRange) (var3 Int) (var4 Heap)) (not (and (inv_main17 var4 var3 var2 var1 var0) (and (and (is-O_Int (read var4 (nthAddrRange var2 var1))) (is-O_Int (read var4 (nthAddrRange var2 var0)))) (= (getInt (read var4 (nthAddrRange var2 var1))) (getInt (read var4 (nthAddrRange var2 var0)))))))))
(assert (forall ((var0 Int) (var1 AddrRange) (var2 Int) (var3 Int) (var4 AddrRange) (var5 Int) (var6 Heap)) (not (and (inv_main25 var6 var5 var4 var3 var2 var1 var0) (not (is-O_Int (read var6 (nthAddrRange var1 var0))))))))
(assert (forall ((var0 Int) (var1 AddrRange) (var2 Int) (var3 Int) (var4 AddrRange) (var5 Int) (var6 Heap)) (not (and (inv_main25 var6 var5 var4 var3 var2 var1 var0) (and (is-O_Int (read var6 (nthAddrRange var1 var0))) (not (within var1 (nthAddrRange var1 var0))))))))
(assert (forall ((var0 Int) (var1 AddrRange) (var2 Int) (var3 Int) (var4 AddrRange) (var5 Int) (var6 Heap)) (not (and (inv_main25 var6 var5 var4 var3 var2 var1 var0) (and (is-O_Int (read var6 (nthAddrRange var1 var0))) (not (is-O_Int (read var6 (nthAddrRange var1 var0)))))))))
(assert (forall ((var0 Int) (var1 AddrRange) (var2 Int) (var3 Int) (var4 AddrRange) (var5 Int) (var6 Heap)) (not (and (inv_main28 var6 var5 var4 var3 var2 var1 var0) (not (is-O_Int (read var6 (nthAddrRange var1 var0))))))))
(assert (forall ((var0 Int) (var1 AddrRange) (var2 Int) (var3 Int) (var4 AddrRange) (var5 Int) (var6 Heap)) (not (and (inv_main28 var6 var5 var4 var3 var2 var1 var0) (and (is-O_Int (read var6 (nthAddrRange var1 var0))) (not (within var1 (nthAddrRange var1 var0))))))))
(assert (forall ((var0 Int) (var1 Int) (var2 Int) (var3 AddrRange) (var4 Int) (var5 AddrRange) (var6 Int) (var7 Int) (var8 AddrRange) (var9 Int) (var10 Heap)) (not (and (inv_main38 var10 var9 var8 var7 var6 var5 var4 var3 var2 var1 var0) (not (is-O_Int (read var10 (nthAddrRange var3 var0))))))))
(assert (forall ((var0 Int) (var1 Int) (var2 Int) (var3 AddrRange) (var4 Int) (var5 AddrRange) (var6 Int) (var7 Int) (var8 AddrRange) (var9 Int) (var10 Heap)) (not (and (inv_main38 var10 var9 var8 var7 var6 var5 var4 var3 var2 var1 var0) (and (is-O_Int (read var10 (nthAddrRange var3 var0))) (not (within var3 (nthAddrRange var3 var0))))))))
(assert (forall ((var0 Int) (var1 AddrRange) (var2 Int) (var3 Int) (var4 AddrRange) (var5 Int) (var6 Heap)) (not (and (inv_main30 var6 var5 var4 var3 var2 var1 var0) (not (is-O_Int (read var6 (nthAddrRange var1 var0))))))))
(assert (forall ((var0 Int) (var1 AddrRange) (var2 Int) (var3 Int) (var4 AddrRange) (var5 Int) (var6 Heap)) (not (and (inv_main30 var6 var5 var4 var3 var2 var1 var0) (and (is-O_Int (read var6 (nthAddrRange var1 var0))) (not (within var1 (nthAddrRange var1 var0))))))))
(assert (forall ((var0 Int) (var1 Int) (var2 AddrRange) (var3 Int) (var4 AddrRange) (var5 Int) (var6 Int) (var7 AddrRange) (var8 Int) (var9 Heap)) (not (and (inv_main43 var9 var8 var7 var6 var5 var4 var3 var2 var1 var0) (not (is-O_Int (read var9 (nthAddrRange var2 var1))))))))
(assert (forall ((var0 Int) (var1 Int) (var2 AddrRange) (var3 Int) (var4 AddrRange) (var5 Int) (var6 Int) (var7 AddrRange) (var8 Int) (var9 Heap)) (not (and (inv_main43 var9 var8 var7 var6 var5 var4 var3 var2 var1 var0) (and (is-O_Int (read var9 (nthAddrRange var2 var1))) (not (within var2 (nthAddrRange var2 var1))))))))
(assert (forall ((var0 Int) (var1 Int) (var2 AddrRange) (var3 Int) (var4 AddrRange) (var5 Int) (var6 Int) (var7 AddrRange) (var8 Int) (var9 Heap)) (not (and (inv_main43 var9 var8 var7 var6 var5 var4 var3 var2 var1 var0) (and (is-O_Int (read var9 (nthAddrRange var2 var1))) (not (is-O_Int (read var9 (nthAddrRange var2 var1)))))))))
(assert (forall ((var0 Int) (var1 AddrRange) (var2 Int) (var3 Int) (var4 AddrRange) (var5 Int) (var6 Heap)) (not (and (inv_main52 var6 var5 var4 var3 var2 var1 var0) (not (is-O_Int (read var6 (nthAddrRange var4 var3))))))))
(assert (forall ((var0 Int) (var1 AddrRange) (var2 Int) (var3 Int) (var4 AddrRange) (var5 Int) (var6 Heap)) (not (and (inv_main52 var6 var5 var4 var3 var2 var1 var0) (not (within var4 (nthAddrRange var4 var3)))))))
(assert (forall ((var0 Int) (var1 AddrRange) (var2 Int) (var3 Int) (var4 AddrRange) (var5 Int) (var6 Heap)) (not (and (inv_main52 var6 var5 var4 var3 var2 var1 var0) (not (is-O_Int (read var6 (nthAddrRange var4 var2))))))))
(assert (forall ((var0 Int) (var1 AddrRange) (var2 Int) (var3 Int) (var4 AddrRange) (var5 Int) (var6 Heap)) (not (and (inv_main52 var6 var5 var4 var3 var2 var1 var0) (not (within var4 (nthAddrRange var4 var2)))))))
(assert (forall ((var0 Int) (var1 AddrRange) (var2 Int) (var3 Int) (var4 AddrRange) (var5 Int) (var6 Heap)) (not (and (inv_main52 var6 var5 var4 var3 var2 var1 var0) (not (is-O_Int (read var6 (nthAddrRange var4 var3))))))))
(assert (forall ((var0 Int) (var1 AddrRange) (var2 Int) (var3 Int) (var4 AddrRange) (var5 Int) (var6 Heap)) (not (and (inv_main52 var6 var5 var4 var3 var2 var1 var0) (and (is-O_Int (read var6 (nthAddrRange var4 var3))) (not (within var4 (nthAddrRange var4 var3))))))))
(assert (forall ((var0 Int) (var1 AddrRange) (var2 Int) (var3 Int) (var4 AddrRange) (var5 Int) (var6 Heap)) (not (and (inv_main52 var6 var5 var4 var3 var2 var1 var0) (and (is-O_Int (read var6 (nthAddrRange var4 var3))) (not (is-O_Int (read var6 (nthAddrRange var4 var2)))))))))
(assert (forall ((var0 Int) (var1 AddrRange) (var2 Int) (var3 Int) (var4 AddrRange) (var5 Int) (var6 Heap)) (not (and (inv_main52 var6 var5 var4 var3 var2 var1 var0) (and (and (is-O_Int (read var6 (nthAddrRange var4 var3))) (is-O_Int (read var6 (nthAddrRange var4 var2)))) (not (within var4 (nthAddrRange var4 var2))))))))
(assert (forall ((var0 Int) (var1 AddrRange) (var2 Int) (var3 Int) (var4 AddrRange) (var5 Int) (var6 Heap)) (not (and (inv_main52 var6 var5 var4 var3 var2 var1 var0) (and (and (is-O_Int (read var6 (nthAddrRange var4 var3))) (is-O_Int (read var6 (nthAddrRange var4 var2)))) (= (getInt (read var6 (nthAddrRange var4 var3))) (getInt (read var6 (nthAddrRange var4 var2)))))))))
(check-sat)
